<?xml version="1.0" encoding="UTF-8"?><osil xmlns="os.optimizationservices.org" xmlns:xsi="http://www.w3.org/2001/XMLSchema-instance" xsi:schemaLocation="os.optimizationservices.org http://www.optimizationservices.org/schemas/2.0/OSiL.xsd"><instanceHeader><name>slay04h</name></instanceHeader><instanceData><variables numberOfVariables="140"><var name="x1" lb="2.5" ub="27.5"/><var name="x2" lb="3.5" ub="26.5"/><var name="x3" lb="1.5" ub="28.5"/><var name="x4" lb="1" ub="29"/><var name="x5" lb="3" ub="27"/><var name="x6" lb="2.5" ub="27.5"/><var name="x7" lb="1.5" ub="28.5"/><var name="x8" lb="1.5" ub="28.5"/><var name="x9"/><var name="x10"/><var name="x11"/><var name="x12"/><var name="x13"/><var name="x14"/><var name="x15"/><var name="x16"/><var name="x17"/><var name="x18"/><var name="x19"/><var name="x20"/><var name="x21"/><var name="x22"/><var name="x23"/><var name="x24"/><var name="x25"/><var name="x26"/><var name="x27"/><var name="x28"/><var name="x29"/><var name="x30"/><var name="x31"/><var name="x32"/><var name="x33"/><var name="x34"/><var name="x35"/><var name="x36"/><var name="x37"/><var name="x38"/><var name="x39"/><var name="x40"/><var name="x41"/><var name="x42"/><var name="x43"/><var name="x44"/><var name="x45"/><var name="x46"/><var name="x47"/><var name="x48"/><var name="x49"/><var name="x50"/><var name="x51"/><var name="x52"/><var name="x53"/><var name="x54"/><var name="x55"/><var name="x56"/><var name="x57"/><var name="x58"/><var name="x59"/><var name="x60"/><var name="x61"/><var name="x62"/><var name="x63"/><var name="x64"/><var name="x65"/><var name="x66"/><var name="x67"/><var name="x68"/><var name="x69"/><var name="x70"/><var name="x71"/><var name="x72"/><var name="x73"/><var name="x74"/><var name="x75"/><var name="x76"/><var name="x77"/><var name="x78"/><var name="x79"/><var name="x80"/><var name="x81"/><var name="x82"/><var name="x83"/><var name="x84"/><var name="x85"/><var name="x86"/><var name="x87"/><var name="x88"/><var name="x89"/><var name="x90"/><var name="x91"/><var name="x92"/><var name="x93"/><var name="x94"/><var name="x95"/><var name="x96"/><var name="x97"/><var name="x98"/><var name="x99"/><var name="x100"/><var name="x101"/><var name="x102"/><var name="x103"/><var name="x104"/><var name="b105" type="B" ub="1"/><var name="b106" type="B" ub="1"/><var name="b107" type="B" ub="1"/><var name="b108" type="B" ub="1"/><var name="b109" type="B" ub="1"/><var name="b110" type="B" ub="1"/><var name="b111" type="B" ub="1"/><var name="b112" type="B" ub="1"/><var name="b113" type="B" ub="1"/><var name="b114" type="B" ub="1"/><var name="b115" type="B" ub="1"/><var name="b116" type="B" ub="1"/><var name="b117" type="B" ub="1"/><var name="b118" type="B" ub="1"/><var name="b119" type="B" ub="1"/><var name="b120" type="B" ub="1"/><var name="b121" type="B" ub="1"/><var name="b122" type="B" ub="1"/><var name="b123" type="B" ub="1"/><var name="b124" type="B" ub="1"/><var name="b125" type="B" ub="1"/><var name="b126" type="B" ub="1"/><var name="b127" type="B" ub="1"/><var name="b128" type="B" ub="1"/><var name="x129"/><var name="x130"/><var name="x131"/><var name="x132"/><var name="x133"/><var name="x134"/><var name="x135"/><var name="x136"/><var name="x137"/><var name="x138"/><var name="x139"/><var name="x140"/></variables><objectives><obj maxOrMin="min" constant="1.7661e5" name="defObj_objvar" numberOfObjCoef="20"><coef idx="0">-1.2e3</coef><coef idx="1">-7.8e3</coef><coef idx="2">-3.36e3</coef><coef idx="3">-4.2e2</coef><coef idx="4">-3e3</coef><coef idx="5">-1.17e4</coef><coef idx="6">-4.32e3</coef><coef idx="7">-4.2e2</coef><coef idx="128">300</coef><coef idx="129">2.4e2</coef><coef idx="130">2.1e2</coef><coef idx="131">100</coef><coef idx="132">1.5e2</coef><coef idx="133">1.2e2</coef><coef idx="134">300</coef><coef idx="135">2.4e2</coef><coef idx="136">2.1e2</coef><coef idx="137">100</coef><coef idx="138">1.5e2</coef><coef idx="139">1.2e2</coef></obj></objectives><constraints numberOfConstraints="174"><con name="e2" lb="0"/><con name="e3" lb="0"/><con name="e4" lb="0"/><con name="e5" lb="0"/><con name="e6" lb="0"/><con name="e7" lb="0"/><con name="e8" lb="0"/><con name="e9" lb="0"/><con name="e10" lb="0"/><con name="e11" lb="0"/><con name="e12" lb="0"/><con name="e13" lb="0"/><con name="e14" lb="0"/><con name="e15" lb="0"/><con name="e16" lb="0"/><con name="e17" lb="0"/><con name="e18" lb="0"/><con name="e19" lb="0"/><con name="e20" lb="0"/><con name="e21" lb="0"/><con name="e22" lb="0"/><con name="e23" lb="0"/><con name="e24" lb="0"/><con name="e25" lb="0"/><con name="e26" lb="0" ub="0"/><con name="e27" lb="0" ub="0"/><con name="e28" lb="0" ub="0"/><con name="e29" lb="0" ub="0"/><con name="e30" lb="0" ub="0"/><con name="e31" lb="0" ub="0"/><con name="e32" lb="0" ub="0"/><con name="e33" lb="0" ub="0"/><con name="e34" lb="0" ub="0"/><con name="e35" lb="0" ub="0"/><con name="e36" lb="0" ub="0"/><con name="e37" lb="0" ub="0"/><con name="e38" lb="0" ub="0"/><con name="e39" lb="0" ub="0"/><con name="e40" lb="0" ub="0"/><con name="e41" lb="0" ub="0"/><con name="e42" lb="0" ub="0"/><con name="e43" lb="0" ub="0"/><con name="e44" lb="0" ub="0"/><con name="e45" lb="0" ub="0"/><con name="e46" lb="0" ub="0"/><con name="e47" lb="0" ub="0"/><con name="e48" lb="0" ub="0"/><con name="e49" lb="0" ub="0"/><con name="e50" ub="0"/><con name="e51" ub="0"/><con name="e52" ub="0"/><con name="e53" ub="0"/><con name="e54" ub="0"/><con name="e55" ub="0"/><con name="e56" ub="0"/><con name="e57" ub="0"/><con name="e58" ub="0"/><con name="e59" ub="0"/><con name="e60" ub="0"/><con name="e61" ub="0"/><con name="e62" ub="0"/><con name="e63" ub="0"/><con name="e64" ub="0"/><con name="e65" ub="0"/><con name="e66" ub="0"/><con name="e67" ub="0"/><con name="e68" ub="0"/><con name="e69" ub="0"/><con name="e70" ub="0"/><con name="e71" ub="0"/><con name="e72" ub="0"/><con name="e73" ub="0"/><con name="e74" ub="0"/><con name="e75" ub="0"/><con name="e76" ub="0"/><con name="e77" ub="0"/><con name="e78" ub="0"/><con name="e79" ub="0"/><con name="e80" ub="0"/><con name="e81" ub="0"/><con name="e82" ub="0"/><con name="e83" ub="0"/><con name="e84" ub="0"/><con name="e85" ub="0"/><con name="e86" ub="0"/><con name="e87" ub="0"/><con name="e88" ub="0"/><con name="e89" ub="0"/><con name="e90" ub="0"/><con name="e91" ub="0"/><con name="e92" ub="0"/><con name="e93" ub="0"/><con name="e94" ub="0"/><con name="e95" ub="0"/><con name="e96" ub="0"/><con name="e97" ub="0"/><con name="e98" ub="0"/><con name="e99" ub="0"/><con name="e100" ub="0"/><con name="e101" ub="0"/><con name="e102" ub="0"/><con name="e103" ub="0"/><con name="e104" ub="0"/><con name="e105" ub="0"/><con name="e106" ub="0"/><con name="e107" ub="0"/><con name="e108" ub="0"/><con name="e109" ub="0"/><con name="e110" ub="0"/><con name="e111" ub="0"/><con name="e112" ub="0"/><con name="e113" ub="0"/><con name="e114" ub="0"/><con name="e115" ub="0"/><con name="e116" ub="0"/><con name="e117" ub="0"/><con name="e118" ub="0"/><con name="e119" ub="0"/><con name="e120" ub="0"/><con name="e121" ub="0"/><con name="e122" ub="0"/><con name="e123" ub="0"/><con name="e124" ub="0"/><con name="e125" ub="0"/><con name="e126" ub="0"/><con name="e127" ub="0"/><con name="e128" ub="0"/><con name="e129" ub="0"/><con name="e130" ub="0"/><con name="e131" ub="0"/><con name="e132" ub="0"/><con name="e133" ub="0"/><con name="e134" ub="0"/><con name="e135" ub="0"/><con name="e136" ub="0"/><con name="e137" ub="0"/><con name="e138" ub="0"/><con name="e139" ub="0"/><con name="e140" ub="0"/><con name="e141" ub="0"/><con name="e142" ub="0"/><con name="e143" ub="0"/><con name="e144" ub="0"/><con name="e145" ub="0"/><con name="e146" ub="0"/><con name="e147" ub="0"/><con name="e148" ub="0"/><con name="e149" ub="0"/><con name="e150" ub="0"/><con name="e151" ub="0"/><con name="e152" ub="0"/><con name="e153" ub="0"/><con name="e154" ub="0"/><con name="e155" ub="0"/><con name="e156" ub="0"/><con name="e157" ub="0"/><con name="e158" ub="0"/><con name="e159" ub="0"/><con name="e160" ub="0"/><con name="e161" ub="0"/><con name="e162" ub="0"/><con name="e163" ub="0"/><con name="e164" ub="0"/><con name="e165" ub="0"/><con name="e166" ub="0"/><con name="e167" ub="0"/><con name="e168" ub="0"/><con name="e169" ub="0"/><con name="e170" lb="1" ub="1"/><con name="e171" lb="1" ub="1"/><con name="e172" lb="1" ub="1"/><con name="e173" lb="1" ub="1"/><con name="e174" lb="1" ub="1"/><con name="e175" lb="1" ub="1"/></constraints><linearConstraintCoefficients numberOfValues="480"><start><el mult="25" incr="3">0</el><el mult="24" incr="5">77</el><el mult="96" incr="2">194</el><el mult="24" incr="3">387</el><el mult="6" incr="4">460</el></start><colIdx><el>0</el><el>1</el><el>128</el><el>0</el><el>2</el><el>129</el><el>0</el><el>3</el><el>130</el><el>1</el><el>2</el><el>131</el><el>1</el><el>3</el><el>132</el><el>2</el><el>3</el><el>133</el><el>0</el><el>1</el><el>128</el><el>0</el><el>2</el><el>129</el><el>0</el><el>3</el><el>130</el><el>1</el><el>2</el><el>131</el><el>1</el><el>3</el><el>132</el><el>2</el><el>3</el><el>133</el><el>4</el><el>5</el><el>134</el><el>4</el><el>6</el><el>135</el><el>4</el><el>7</el><el>136</el><el>5</el><el>6</el><el>137</el><el>5</el><el>7</el><el>138</el><el>6</el><el>7</el><el>139</el><el>4</el><el>5</el><el>134</el><el>4</el><el>6</el><el>135</el><el>4</el><el>7</el><el>136</el><el>5</el><el>6</el><el>137</el><el>5</el><el>7</el><el>138</el><el>6</el><el>7</el><el>139</el><el>0</el><el mult="4" incr="3">8</el><el>0</el><el mult="4" incr="3">9</el><el>0</el><el mult="4" incr="3">10</el><el>1</el><el mult="4" incr="3">20</el><el>1</el><el mult="4" incr="3">21</el><el>1</el><el mult="4" incr="3">22</el><el>2</el><el mult="4" incr="3">32</el><el>2</el><el mult="4" incr="3">33</el><el>2</el><el mult="4" incr="3">34</el><el>3</el><el mult="4" incr="3">44</el><el>3</el><el mult="4" incr="3">45</el><el>3</el><el mult="4" incr="3">46</el><el>4</el><el mult="4" incr="3">56</el><el>4</el><el mult="4" incr="3">57</el><el>4</el><el mult="4" incr="3">58</el><el>5</el><el mult="4" incr="3">68</el><el>5</el><el mult="4" incr="3">69</el><el>5</el><el mult="4" incr="3">70</el><el>6</el><el mult="4" incr="3">80</el><el>6</el><el mult="4" incr="3">81</el><el>6</el><el mult="4" incr="3">82</el><el>7</el><el mult="4" incr="3">92</el><el>7</el><el mult="4" incr="3">93</el><el>7</el><el mult="4" incr="3">94</el><el>8</el><el>104</el><el>9</el><el>105</el><el>10</el><el>106</el><el>11</el><el>110</el><el>12</el><el>111</el><el>13</el><el>112</el><el>14</el><el>116</el><el>15</el><el>117</el><el>16</el><el>118</el><el>17</el><el>122</el><el>18</el><el>123</el><el>19</el><el>124</el><el>20</el><el>104</el><el>21</el><el>107</el><el>22</el><el>108</el><el>23</el><el>110</el><el>24</el><el>113</el><el>25</el><el>114</el><el>26</el><el>116</el><el>27</el><el>119</el><el>28</el><el>120</el><el>29</el><el>122</el><el>30</el><el>125</el><el>31</el><el>126</el><el>32</el><el>105</el><el>33</el><el>107</el><el>34</el><el>109</el><el>35</el><el>111</el><el>36</el><el>113</el><el>37</el><el>115</el><el>38</el><el>117</el><el>39</el><el>119</el><el>40</el><el>121</el><el>41</el><el>123</el><el>42</el><el>125</el><el>43</el><el>127</el><el>44</el><el>106</el><el>45</el><el>108</el><el>46</el><el>109</el><el>47</el><el>112</el><el>48</el><el>114</el><el>49</el><el>115</el><el>50</el><el>118</el><el>51</el><el>120</el><el>52</el><el>121</el><el>53</el><el>124</el><el>54</el><el>126</el><el>55</el><el>127</el><el>56</el><el>104</el><el>57</el><el>105</el><el>58</el><el>106</el><el>59</el><el>110</el><el>60</el><el>111</el><el>61</el><el>112</el><el>62</el><el>116</el><el>63</el><el>117</el><el>64</el><el>118</el><el>65</el><el>122</el><el>66</el><el>123</el><el>67</el><el>124</el><el>68</el><el>104</el><el>69</el><el>107</el><el>70</el><el>108</el><el>71</el><el>110</el><el>72</el><el>113</el><el>73</el><el>114</el><el>74</el><el>116</el><el>75</el><el>119</el><el>76</el><el>120</el><el>77</el><el>122</el><el>78</el><el>125</el><el>79</el><el>126</el><el>80</el><el>105</el><el>81</el><el>107</el><el>82</el><el>109</el><el>83</el><el>111</el><el>84</el><el>113</el><el>85</el><el>115</el><el>86</el><el>117</el><el>87</el><el>119</el><el>88</el><el>121</el><el>89</el><el>123</el><el>90</el><el>125</el><el>91</el><el>127</el><el>92</el><el>106</el><el>93</el><el>108</el><el>94</el><el>109</el><el>95</el><el>112</el><el>96</el><el>114</el><el>97</el><el>115</el><el>98</el><el>118</el><el>99</el><el>120</el><el>100</el><el>121</el><el>101</el><el>124</el><el>102</el><el>126</el><el>103</el><el>127</el><el>8</el><el>20</el><el>104</el><el>9</el><el>32</el><el>105</el><el>10</el><el>44</el><el>106</el><el>21</el><el>33</el><el>107</el><el>22</el><el>45</el><el>108</el><el>34</el><el>46</el><el>109</el><el>11</el><el>23</el><el>110</el><el>12</el><el>35</el><el>111</el><el>13</el><el>47</el><el>112</el><el>24</el><el>36</el><el>113</el><el>25</el><el>48</el><el>114</el><el>37</el><el>49</el><el>115</el><el>62</el><el>74</el><el>116</el><el>63</el><el>86</el><el>117</el><el>64</el><el>98</el><el>118</el><el>75</el><el>87</el><el>119</el><el>76</el><el>99</el><el>120</el><el>88</el><el>100</el><el>121</el><el>65</el><el>77</el><el>122</el><el>66</el><el>89</el><el>123</el><el>67</el><el>101</el><el>124</el><el>78</el><el>90</el><el>125</el><el>79</el><el>102</el><el>126</el><el>91</el><el>103</el><el>127</el><el mult="4" incr="6">104</el><el mult="4" incr="6">105</el><el mult="4" incr="6">106</el><el mult="4" incr="6">107</el><el mult="4" incr="6">108</el><el mult="4" incr="6">109</el></colIdx><value><el>-1</el><el mult="2">1</el><el>-1</el><el mult="2">1</el><el>-1</el><el mult="2">1</el><el>-1</el><el mult="2">1</el><el>-1</el><el mult="2">1</el><el>-1</el><el mult="3">1</el><el>-1</el><el mult="2">1</el><el>-1</el><el mult="2">1</el><el>-1</el><el mult="2">1</el><el>-1</el><el mult="2">1</el><el>-1</el><el mult="2">1</el><el>-1</el><el>1</el><el>-1</el><el mult="2">1</el><el>-1</el><el mult="2">1</el><el>-1</el><el mult="2">1</el><el>-1</el><el mult="2">1</el><el>-1</el><el mult="2">1</el><el>-1</el><el mult="3">1</el><el>-1</el><el mult="2">1</el><el>-1</el><el mult="2">1</el><el>-1</el><el mult="2">1</el><el>-1</el><el mult="2">1</el><el>-1</el><el mult="2">1</el><el>-1</el><el mult="2">1</el><el mult="4">-1</el><el>1</el><el mult="4">-1</el><el>1</el><el mult="4">-1</el><el>1</el><el mult="4">-1</el><el>1</el><el mult="4">-1</el><el>1</el><el mult="4">-1</el><el>1</el><el mult="4">-1</el><el>1</el><el mult="4">-1</el><el>1</el><el mult="4">-1</el><el>1</el><el mult="4">-1</el><el>1</el><el mult="4">-1</el><el>1</el><el mult="4">-1</el><el>1</el><el mult="4">-1</el><el>1</el><el mult="4">-1</el><el>1</el><el mult="4">-1</el><el>1</el><el mult="4">-1</el><el>1</el><el mult="4">-1</el><el>1</el><el mult="4">-1</el><el>1</el><el mult="4">-1</el><el>1</el><el mult="4">-1</el><el>1</el><el mult="4">-1</el><el>1</el><el mult="4">-1</el><el>1</el><el mult="4">-1</el><el>1</el><el mult="4">-1</el><el>1</el><el>-27.5</el><el>1</el><el>-27.5</el><el>1</el><el>-27.5</el><el>1</el><el>-27.5</el><el>1</el><el>-27.5</el><el>1</el><el>-27.5</el><el>1</el><el>-27.5</el><el>1</el><el>-27.5</el><el>1</el><el>-27.5</el><el>1</el><el>-27.5</el><el>1</el><el>-27.5</el><el>1</el><el>-27.5</el><el>1</el><el>-27.5</el><el>1</el><el>-26.5</el><el>1</el><el>-26.5</el><el>1</el><el>-27.5</el><el>1</el><el>-26.5</el><el>1</el><el>-26.5</el><el>1</el><el>-27.5</el><el>1</el><el>-26.5</el><el>1</el><el>-26.5</el><el>1</el><el>-27.5</el><el>1</el><el>-26.5</el><el>1</el><el>-26.5</el><el>1</el><el>-27.5</el><el>1</el><el>-26.5</el><el>1</el><el>-28.5</el><el>1</el><el>-27.5</el><el>1</el><el>-26.5</el><el>1</el><el>-28.5</el><el>1</el><el>-27.5</el><el>1</el><el>-26.5</el><el>1</el><el>-28.5</el><el>1</el><el>-27.5</el><el>1</el><el>-26.5</el><el>1</el><el>-28.5</el><el>1</el><el>-27.5</el><el>1</el><el>-26.5</el><el>1</el><el>-28.5</el><el>1</el><el>-27.5</el><el>1</el><el>-26.5</el><el>1</el><el>-28.5</el><el>1</el><el>-27.5</el><el>1</el><el>-26.5</el><el>1</el><el>-28.5</el><el>1</el><el>-27.5</el><el>1</el><el>-26.5</el><el>1</el><el>-28.5</el><el>1</el><el>-27</el><el>1</el><el>-27</el><el>1</el><el>-27</el><el>1</el><el>-27</el><el>1</el><el>-27</el><el>1</el><el>-27</el><el>1</el><el>-27</el><el>1</el><el>-27</el><el>1</el><el>-27</el><el>1</el><el>-27</el><el>1</el><el>-27</el><el>1</el><el>-27</el><el>1</el><el>-27</el><el>1</el><el>-27.5</el><el>1</el><el>-27.5</el><el>1</el><el>-27</el><el>1</el><el>-27.5</el><el>1</el><el>-27.5</el><el>1</el><el>-27</el><el>1</el><el>-27.5</el><el>1</el><el>-27.5</el><el>1</el><el>-27</el><el>1</el><el>-27.5</el><el>1</el><el>-27.5</el><el>1</el><el>-27</el><el>1</el><el>-27.5</el><el>1</el><el>-28.5</el><el>1</el><el>-27</el><el>1</el><el>-27.5</el><el>1</el><el>-28.5</el><el>1</el><el>-27</el><el>1</el><el>-27.5</el><el>1</el><el>-28.5</el><el>1</el><el>-27</el><el>1</el><el>-27.5</el><el>1</el><el>-28.5</el><el>1</el><el>-27</el><el>1</el><el>-27.5</el><el>1</el><el>-28.5</el><el>1</el><el>-27</el><el>1</el><el>-27.5</el><el>1</el><el>-28.5</el><el>1</el><el>-27</el><el>1</el><el>-27.5</el><el>1</el><el>-28.5</el><el>1</el><el>-27</el><el>1</el><el>-27.5</el><el>1</el><el>-28.5</el><el>1</el><el>-1</el><el>6</el><el>1</el><el>-1</el><el>4</el><el>1</el><el>-1</el><el>3.5</el><el>1</el><el>-1</el><el>5</el><el>1</el><el>-1</el><el>4.5</el><el>1</el><el>-1</el><el>2.5</el><el>-1</el><el>1</el><el>6</el><el>-1</el><el>1</el><el>4</el><el>-1</el><el>1</el><el>3.5</el><el>-1</el><el>1</el><el>5</el><el>-1</el><el>1</el><el>4.5</el><el>-1</el><el>1</el><el>2.5</el><el>1</el><el>-1</el><el>5.5</el><el>1</el><el>-1</el><el>4.5</el><el>1</el><el>-1</el><el>4.5</el><el>1</el><el>-1</el><el>4</el><el>1</el><el>-1</el><el>4</el><el>1</el><el>-1</el><el>3</el><el>-1</el><el>1</el><el>5.5</el><el>-1</el><el>1</el><el>4.5</el><el>-1</el><el>1</el><el>4.5</el><el>-1</el><el>1</el><el>4</el><el>-1</el><el>1</el><el>4</el><el>-1</el><el>1</el><el>3</el><el mult="24">1</el></value></linearConstraintCoefficients><quadraticCoefficients numberOfQuadraticTerms="8"><qTerm idx="-1" idxOne="0" idxTwo="0" coef="1.5e2"/><qTerm idx="-1" idxOne="1" idxTwo="1" coef="3.9e2"/><qTerm idx="-1" idxOne="2" idxTwo="2" coef="2.4e2"/><qTerm idx="-1" idxOne="3" idxTwo="3" coef="70"/><qTerm idx="-1" idxOne="4" idxTwo="4" coef="1.5e2"/><qTerm idx="-1" idxOne="5" idxTwo="5" coef="3.9e2"/><qTerm idx="-1" idxOne="6" idxTwo="6" coef="2.4e2"/><qTerm idx="-1" idxOne="7" idxTwo="7" coef="70"/></quadraticCoefficients></instanceData></osil>